p cnf 200 1110
-101 -62 0
-101 22 0
-101 -51 0
-101 -98 0
-101 -82 0
-101 -7 0
-101 -90 0
-101 38 0
-101 15 0
-101 21 0
101 62 -22 51 98 82 7 90 -38 -15 -21 0
-102 82 0
-102 8 0
-102 32 0
-102 53 0
-102 -67 0
-102 45 0
-102 -52 0
-102 77 0
-102 -78 0
-102 36 0
102 -82 -8 -32 -53 67 -45 52 -77 78 -36 0
-103 61 0
-103 -31 0
-103 15 0
-103 -59 0
-103 19 0
-103 -47 0
-103 56 0
-103 29 0
-103 81 0
-103 -79 0
103 -61 31 -15 59 -19 47 -56 -29 -81 79 0
-104 -87 0
-104 63 0
-104 -80 0
-104 86 0
-104 -31 0
-104 -90 0
-104 82 0
-104 5 0
-104 -55 0
-104 -7 0
104 87 -63 80 -86 31 90 -82 -5 55 7 0
-105 -72 0
-105 67 0
-105 46 0
-105 -78 0
-105 59 0
-105 -62 0
-105 56 0
-105 -89 0
-105 50 0
-105 -11 0
105 72 -67 -46 78 -59 62 -56 89 -50 11 0
-106 -63 0
-106 42 0
-106 -37 0
-106 -53 0
-106 -55 0
-106 92 0
-106 -100 0
-106 -66 0
-106 79 0
-106 -86 0
106 63 -42 37 53 55 -92 100 66 -79 86 0
-107 61 0
-107 -44 0
-107 -83 0
-107 -4 0
-107 81 0
-107 28 0
-107 -20 0
-107 3 0
-107 -99 0
-107 -51 0
107 -61 44 83 4 -81 -28 20 -3 99 51 0
-108 -69 0
-108 48 0
-108 -3 0
-108 -99 0
-108 5 0
-108 46 0
-108 56 0
-108 90 0
-108 -58 0
-108 59 0
108 69 -48 3 99 -5 -46 -56 -90 58 -59 0
-109 94 0
-109 -3 0
-109 7 0
-109 66 0
-109 40 0
-109 26 0
-109 50 0
-109 -75 0
-109 2 0
-109 36 0
109 -94 3 -7 -66 -40 -26 -50 75 -2 -36 0
-110 -27 0
-110 28 0
-110 83 0
-110 96 0
-110 86 0
-110 -2 0
-110 100 0
-110 -98 0
-110 -77 0
-110 53 0
110 27 -28 -83 -96 -86 2 -100 98 77 -53 0
101 102 103 104 105 106 107 108 109 110 0
-111 -49 0
-111 -96 0
-111 7 0
-111 88 0
-111 -16 0
-111 -93 0
-111 -35 0
-111 -21 0
-111 34 0
-111 -83 0
111 49 96 -7 -88 16 93 35 21 -34 83 0
-112 -74 0
-112 50 0
-112 59 0
-112 25 0
-112 60 0
-112 -55 0
-112 69 0
-112 88 0
-112 98 0
-112 22 0
112 74 -50 -59 -25 -60 55 -69 -88 -98 -22 0
-113 97 0
-113 26 0
-113 -85 0
-113 -11 0
-113 -61 0
-113 70 0
-113 -56 0
-113 81 0
-113 51 0
-113 -73 0
113 -97 -26 85 11 61 -70 56 -81 -51 73 0
-114 18 0
-114 -43 0
-114 -64 0
-114 10 0
-114 25 0
-114 -11 0
-114 6 0
-114 -59 0
-114 40 0
-114 -42 0
114 -18 43 64 -10 -25 11 -6 59 -40 42 0
-115 -50 0
-115 89 0
-115 97 0
-115 61 0
-115 -94 0
-115 -4 0
-115 79 0
-115 -81 0
-115 24 0
-115 75 0
115 50 -89 -97 -61 94 4 -79 81 -24 -75 0
-116 -100 0
-116 -64 0
-116 88 0
-116 -24 0
-116 -83 0
-116 69 0
-116 81 0
-116 -29 0
-116 12 0
-116 71 0
116 100 64 -88 24 83 -69 -81 29 -12 -71 0
-117 15 0
-117 -96 0
-117 -98 0
-117 42 0
-117 70 0
-117 27 0
-117 -47 0
-117 79 0
-117 54 0
-117 -68 0
117 -15 96 98 -42 -70 -27 47 -79 -54 68 0
-118 64 0
-118 40 0
-118 -5 0
-118 86 0
-118 -84 0
-118 -22 0
-118 -91 0
-118 93 0
-118 25 0
-118 24 0
118 -64 -40 5 -86 84 22 91 -93 -25 -24 0
-119 -93 0
-119 94 0
-119 99 0
-119 2 0
-119 61 0
-119 -32 0
-119 86 0
-119 -83 0
-119 14 0
-119 -80 0
119 93 -94 -99 -2 -61 32 -86 83 -14 80 0
-120 35 0
-120 2 0
-120 -62 0
-120 -53 0
-120 3 0
-120 -93 0
-120 -90 0
-120 -88 0
-120 -14 0
-120 52 0
120 -35 -2 62 53 -3 93 90 88 14 -52 0
111 112 113 114 115 116 117 118 119 120 0
-121 -53 0
-121 32 0
-121 -43 0
-121 78 0
-121 -57 0
-121 -7 0
-121 75 0
-121 -83 0
-121 66 0
-121 -2 0
121 53 -32 43 -78 57 7 -75 83 -66 2 0
-122 -98 0
-122 13 0
-122 99 0
-122 -100 0
-122 4 0
-122 59 0
-122 -49 0
-122 -21 0
-122 -81 0
-122 -39 0
122 98 -13 -99 100 -4 -59 49 21 81 39 0
-123 26 0
-123 5 0
-123 21 0
-123 68 0
-123 55 0
-123 34 0
-123 -95 0
-123 -30 0
-123 11 0
-123 88 0
123 -26 -5 -21 -68 -55 -34 95 30 -11 -88 0
-124 -44 0
-124 -27 0
-124 61 0
-124 -7 0
-124 -32 0
-124 19 0
-124 -5 0
-124 100 0
-124 -46 0
-124 25 0
124 44 27 -61 7 32 -19 5 -100 46 -25 0
-125 -27 0
-125 83 0
-125 18 0
-125 100 0
-125 -42 0
-125 43 0
-125 5 0
-125 -23 0
-125 -98 0
-125 -73 0
125 27 -83 -18 -100 42 -43 -5 23 98 73 0
-126 61 0
-126 -69 0
-126 -82 0
-126 -24 0
-126 92 0
-126 -52 0
-126 -30 0
-126 17 0
-126 -12 0
-126 -1 0
126 -61 69 82 24 -92 52 30 -17 12 1 0
-127 -81 0
-127 45 0
-127 -22 0
-127 -90 0
-127 35 0
-127 94 0
-127 -78 0
-127 -6 0
-127 -28 0
-127 1 0
127 81 -45 22 90 -35 -94 78 6 28 -1 0
-128 -72 0
-128 100 0
-128 11 0
-128 30 0
-128 -78 0
-128 -16 0
-128 -99 0
-128 6 0
-128 15 0
-128 76 0
128 72 -100 -11 -30 78 16 99 -6 -15 -76 0
-129 -77 0
-129 -83 0
-129 -52 0
-129 -72 0
-129 -19 0
-129 91 0
-129 58 0
-129 10 0
-129 -50 0
-129 32 0
129 77 83 52 72 19 -91 -58 -10 50 -32 0
-130 70 0
-130 54 0
-130 -9 0
-130 45 0
-130 -32 0
-130 62 0
-130 -63 0
-130 -20 0
-130 -68 0
-130 66 0
130 -70 -54 9 -45 32 -62 63 20 68 -66 0
121 122 123 124 125 126 127 128 129 130 0
-131 -61 0
-131 29 0
-131 58 0
-131 34 0
-131 1 0
-131 -92 0
-131 -10 0
-131 -4 0
-131 -9 0
-131 -97 0
131 61 -29 -58 -34 -1 92 10 4 9 97 0
-132 4 0
-132 -62 0
-132 79 0
-132 -35 0
-132 6 0
-132 -37 0
-132 -9 0
-132 -68 0
-132 -42 0
-132 -81 0
132 -4 62 -79 35 -6 37 9 68 42 81 0
-133 -29 0
-133 -5 0
-133 100 0
-133 -77 0
-133 -51 0
-133 58 0
-133 -82 0
-133 20 0
-133 34 0
-133 71 0
133 29 5 -100 77 51 -58 82 -20 -34 -71 0
-134 -74 0
-134 -82 0
-134 -6 0
-134 -15 0
-134 47 0
-134 -80 0
-134 -27 0
-134 24 0
-134 96 0
-134 31 0
134 74 82 6 15 -47 80 27 -24 -96 -31 0
-135 92 0
-135 -64 0
-135 -67 0
-135 -97 0
-135 -48 0
-135 -53 0
-135 -27 0
-135 78 0
-135 20 0
-135 -14 0
135 -92 64 67 97 48 53 27 -78 -20 14 0
-136 -85 0
-136 -32 0
-136 38 0
-136 19 0
-136 -70 0
-136 -78 0
-136 -91 0
-136 68 0
-136 23 0
-136 -72 0
136 85 32 -38 -19 70 78 91 -68 -23 72 0
-137 30 0
-137 94 0
-137 11 0
-137 85 0
-137 -62 0
-137 -44 0
-137 29 0
-137 28 0
-137 71 0
-137 -3 0
137 -30 -94 -11 -85 62 44 -29 -28 -71 3 0
-138 58 0
-138 63 0
-138 93 0
-138 -66 0
-138 94 0
-138 -70 0
-138 -43 0
-138 -2 0
-138 16 0
-138 -80 0
138 -58 -63 -93 66 -94 70 43 2 -16 80 0
-139 65 0
-139 95 0
-139 -49 0
-139 100 0
-139 61 0
-139 72 0
-139 -5 0
-139 44 0
-139 -53 0
-139 -58 0
139 -65 -95 49 -100 -61 -72 5 -44 53 58 0
-140 -25 0
-140 58 0
-140 -19 0
-140 -73 0
-140 33 0
-140 45 0
-140 -24 0
-140 -9 0
-140 -46 0
-140 -20 0
140 25 -58 19 73 -33 -45 24 9 46 20 0
131 132 133 134 135 136 137 138 139 140 0
-141 -97 0
-141 -7 0
-141 -95 0
-141 69 0
-141 -55 0
-141 -75 0
-141 65 0
-141 17 0
-141 -41 0
-141 5 0
141 97 7 95 -69 55 75 -65 -17 41 -5 0
-142 -79 0
-142 -53 0
-142 -94 0
-142 3 0
-142 56 0
-142 57 0
-142 -90 0
-142 52 0
-142 70 0
-142 -47 0
142 79 53 94 -3 -56 -57 90 -52 -70 47 0
-143 -53 0
-143 -56 0
-143 -88 0
-143 -70 0
-143 -82 0
-143 71 0
-143 3 0
-143 46 0
-143 41 0
-143 45 0
143 53 56 88 70 82 -71 -3 -46 -41 -45 0
-144 -84 0
-144 41 0
-144 -49 0
-144 -63 0
-144 100 0
-144 51 0
-144 -22 0
-144 -16 0
-144 62 0
-144 -50 0
144 84 -41 49 63 -100 -51 22 16 -62 50 0
-145 -96 0
-145 -88 0
-145 -64 0
-145 22 0
-145 90 0
-145 20 0
-145 10 0
-145 94 0
-145 -31 0
-145 -52 0
145 96 88 64 -22 -90 -20 -10 -94 31 52 0
-146 -25 0
-146 -81 0
-146 -15 0
-146 -7 0
-146 -76 0
-146 45 0
-146 27 0
-146 -73 0
-146 62 0
-146 39 0
146 25 81 15 7 76 -45 -27 73 -62 -39 0
-147 8 0
-147 -76 0
-147 -2 0
-147 13 0
-147 47 0
-147 30 0
-147 -9 0
-147 54 0
-147 40 0
-147 -57 0
147 -8 76 2 -13 -47 -30 9 -54 -40 57 0
-148 23 0
-148 -64 0
-148 70 0
-148 74 0
-148 -73 0
-148 48 0
-148 -36 0
-148 -17 0
-148 -68 0
-148 72 0
148 -23 64 -70 -74 73 -48 36 17 68 -72 0
-149 2 0
-149 90 0
-149 40 0
-149 48 0
-149 64 0
-149 -73 0
-149 -78 0
-149 -58 0
-149 -25 0
-149 -15 0
149 -2 -90 -40 -48 -64 73 78 58 25 15 0
-150 -86 0
-150 -74 0
-150 65 0
-150 -34 0
-150 -84 0
-150 54 0
-150 20 0
-150 9 0
-150 6 0
-150 46 0
150 86 74 -65 34 84 -54 -20 -9 -6 -46 0
141 142 143 144 145 146 147 148 149 150 0
-151 11 0
-151 -20 0
-151 60 0
-151 71 0
-151 81 0
-151 100 0
-151 -75 0
-151 36 0
-151 72 0
-151 -76 0
151 -11 20 -60 -71 -81 -100 75 -36 -72 76 0
-152 2 0
-152 72 0
-152 59 0
-152 25 0
-152 80 0
-152 -81 0
-152 -47 0
-152 -86 0
-152 -67 0
-152 -48 0
152 -2 -72 -59 -25 -80 81 47 86 67 48 0
-153 66 0
-153 40 0
-153 -57 0
-153 26 0
-153 12 0
-153 79 0
-153 10 0
-153 8 0
-153 90 0
-153 -98 0
153 -66 -40 57 -26 -12 -79 -10 -8 -90 98 0
-154 88 0
-154 31 0
-154 -33 0
-154 71 0
-154 85 0
-154 -100 0
-154 -83 0
-154 -32 0
-154 -84 0
-154 -44 0
154 -88 -31 33 -71 -85 100 83 32 84 44 0
-155 -86 0
-155 11 0
-155 60 0
-155 -69 0
-155 -79 0
-155 -34 0
-155 35 0
-155 43 0
-155 -7 0
-155 66 0
155 86 -11 -60 69 79 34 -35 -43 7 -66 0
-156 -28 0
-156 -19 0
-156 33 0
-156 56 0
-156 -1 0
-156 63 0
-156 -98 0
-156 43 0
-156 13 0
-156 71 0
156 28 19 -33 -56 1 -63 98 -43 -13 -71 0
-157 58 0
-157 95 0
-157 -21 0
-157 61 0
-157 -37 0
-157 -5 0
-157 7 0
-157 -22 0
-157 -3 0
-157 83 0
157 -58 -95 21 -61 37 5 -7 22 3 -83 0
-158 -62 0
-158 2 0
-158 -91 0
-158 40 0
-158 -43 0
-158 99 0
-158 96 0
-158 -30 0
-158 -95 0
-158 -65 0
158 62 -2 91 -40 43 -99 -96 30 95 65 0
-159 94 0
-159 6 0
-159 13 0
-159 -91 0
-159 -10 0
-159 51 0
-159 -60 0
-159 -65 0
-159 41 0
-159 -14 0
159 -94 -6 -13 91 10 -51 60 65 -41 14 0
-160 7 0
-160 -68 0
-160 -45 0
-160 -27 0
-160 15 0
-160 -12 0
-160 3 0
-160 38 0
-160 44 0
-160 76 0
160 -7 68 45 27 -15 12 -3 -38 -44 -76 0
151 152 153 154 155 156 157 158 159 160 0
-161 -76 0
-161 70 0
-161 41 0
-161 -91 0
-161 17 0
-161 23 0
-161 2 0
-161 -66 0
-161 -3 0
-161 85 0
161 76 -70 -41 91 -17 -23 -2 66 3 -85 0
-162 -72 0
-162 11 0
-162 46 0
-162 -36 0
-162 -20 0
-162 67 0
-162 69 0
-162 27 0
-162 50 0
-162 -32 0
162 72 -11 -46 36 20 -67 -69 -27 -50 32 0
-163 -57 0
-163 -64 0
-163 -43 0
-163 93 0
-163 -31 0
-163 72 0
-163 -100 0
-163 21 0
-163 -1 0
-163 -28 0
163 57 64 43 -93 31 -72 100 -21 1 28 0
-164 -9 0
-164 87 0
-164 82 0
-164 -90 0
-164 -79 0
-164 95 0
-164 -45 0
-164 -76 0
-164 -46 0
-164 44 0
164 9 -87 -82 90 79 -95 45 76 46 -44 0
-165 -5 0
-165 -49 0
-165 95 0
-165 -7 0
-165 3 0
-165 9 0
-165 -34 0
-165 -90 0
-165 -46 0
-165 73 0
165 5 49 -95 7 -3 -9 34 90 46 -73 0
-166 28 0
-166 -2 0
-166 97 0
-166 56 0
-166 -70 0
-166 -87 0
-166 52 0
-166 -99 0
-166 11 0
-166 55 0
166 -28 2 -97 -56 70 87 -52 99 -11 -55 0
-167 35 0
-167 -44 0
-167 -14 0
-167 -71 0
-167 -81 0
-167 -50 0
-167 -61 0
-167 32 0
-167 86 0
-167 43 0
167 -35 44 14 71 81 50 61 -32 -86 -43 0
-168 74 0
-168 -82 0
-168 37 0
-168 93 0
-168 -17 0
-168 -68 0
-168 -6 0
-168 2 0
-168 -20 0
-168 -26 0
168 -74 82 -37 -93 17 68 6 -2 20 26 0
-169 -60 0
-169 -63 0
-169 98 0
-169 9 0
-169 -28 0
-169 47 0
-169 44 0
-169 62 0
-169 -3 0
-169 -72 0
169 60 63 -98 -9 28 -47 -44 -62 3 72 0
-170 62 0
-170 91 0
-170 60 0
-170 -44 0
-170 -22 0
-170 43 0
-170 15 0
-170 -5 0
-170 51 0
-170 -9 0
170 -62 -91 -60 44 22 -43 -15 5 -51 9 0
161 162 163 164 165 166 167 168 169 170 0
-171 -46 0
-171 13 0
-171 -76 0
-171 44 0
-171 71 0
-171 -86 0
-171 -61 0
-171 -80 0
-171 53 0
-171 100 0
171 46 -13 76 -44 -71 86 61 80 -53 -100 0
-172 -21 0
-172 38 0
-172 39 0
-172 -93 0
-172 -54 0
-172 -59 0
-172 -10 0
-172 26 0
-172 -49 0
-172 69 0
172 21 -38 -39 93 54 59 10 -26 49 -69 0
-173 -4 0
-173 -32 0
-173 13 0
-173 56 0
-173 82 0
-173 -66 0
-173 -11 0
-173 -33 0
-173 -78 0
-173 -84 0
173 4 32 -13 -56 -82 66 11 33 78 84 0
-174 16 0
-174 50 0
-174 -5 0
-174 -46 0
-174 -77 0
-174 27 0
-174 -57 0
-174 -61 0
-174 -25 0
-174 30 0
174 -16 -50 5 46 77 -27 57 61 25 -30 0
-175 -72 0
-175 -100 0
-175 -10 0
-175 36 0
-175 70 0
-175 -56 0
-175 47 0
-175 -58 0
-175 66 0
-175 91 0
175 72 100 10 -36 -70 56 -47 58 -66 -91 0
-176 55 0
-176 16 0
-176 -82 0
-176 28 0
-176 25 0
-176 -85 0
-176 -50 0
-176 -34 0
-176 -13 0
-176 80 0
176 -55 -16 82 -28 -25 85 50 34 13 -80 0
-177 48 0
-177 -60 0
-177 97 0
-177 15 0
-177 -50 0
-177 91 0
-177 -85 0
-177 -39 0
-177 38 0
-177 -87 0
177 -48 60 -97 -15 50 -91 85 39 -38 87 0
-178 -73 0
-178 -6 0
-178 56 0
-178 -95 0
-178 -90 0
-178 -55 0
-178 -16 0
-178 -29 0
-178 -17 0
-178 42 0
178 73 6 -56 95 90 55 16 29 17 -42 0
-179 -61 0
-179 -88 0
-179 -34 0
-179 -77 0
-179 -62 0
-179 -76 0
-179 21 0
-179 59 0
-179 -36 0
-179 53 0
179 61 88 34 77 62 76 -21 -59 36 -53 0
-180 84 0
-180 -16 0
-180 93 0
-180 3 0
-180 -66 0
-180 -1 0
-180 94 0
-180 42 0
-180 -82 0
-180 92 0
180 -84 16 -93 -3 66 1 -94 -42 82 -92 0
171 172 173 174 175 176 177 178 179 180 0
-181 -91 0
-181 57 0
-181 10 0
-181 -96 0
-181 -3 0
-181 51 0
-181 90 0
-181 15 0
-181 71 0
-181 49 0
181 91 -57 -10 96 3 -51 -90 -15 -71 -49 0
-182 -22 0
-182 -13 0
-182 33 0
-182 -73 0
-182 1 0
-182 46 0
-182 -55 0
-182 57 0
-182 14 0
-182 -7 0
182 22 13 -33 73 -1 -46 55 -57 -14 7 0
-183 -61 0
-183 -95 0
-183 6 0
-183 37 0
-183 87 0
-183 -80 0
-183 -46 0
-183 -10 0
-183 -28 0
-183 -12 0
183 61 95 -6 -37 -87 80 46 10 28 12 0
-184 -42 0
-184 41 0
-184 83 0
-184 80 0
-184 -18 0
-184 -14 0
-184 72 0
-184 30 0
-184 4 0
-184 51 0
184 42 -41 -83 -80 18 14 -72 -30 -4 -51 0
-185 15 0
-185 -52 0
-185 3 0
-185 51 0
-185 64 0
-185 93 0
-185 77 0
-185 -83 0
-185 -42 0
-185 -25 0
185 -15 52 -3 -51 -64 -93 -77 83 42 25 0
-186 -18 0
-186 95 0
-186 84 0
-186 5 0
-186 -91 0
-186 -49 0
-186 54 0
-186 -16 0
-186 51 0
-186 -74 0
186 18 -95 -84 -5 91 49 -54 16 -51 74 0
-187 95 0
-187 99 0
-187 32 0
-187 -18 0
-187 -80 0
-187 -82 0
-187 46 0
-187 -76 0
-187 12 0
-187 27 0
187 -95 -99 -32 18 80 82 -46 76 -12 -27 0
-188 -70 0
-188 55 0
-188 -45 0
-188 78 0
-188 88 0
-188 -50 0
-188 25 0
-188 -83 0
-188 -66 0
-188 -21 0
188 70 -55 45 -78 -88 50 -25 83 66 21 0
-189 78 0
-189 49 0
-189 66 0
-189 16 0
-189 84 0
-189 18 0
-189 -31 0
-189 90 0
-189 -95 0
-189 32 0
189 -78 -49 -66 -16 -84 -18 31 -90 95 -32 0
-190 -76 0
-190 -28 0
-190 -14 0
-190 -61 0
-190 -70 0
-190 -13 0
-190 -12 0
-190 3 0
-190 30 0
-190 100 0
190 76 28 14 61 70 13 12 -3 -30 -100 0
181 182 183 184 185 186 187 188 189 190 0
-191 -46 0
-191 7 0
-191 51 0
-191 -17 0
-191 2 0
-191 91 0
-191 16 0
-191 -45 0
-191 -34 0
-191 73 0
191 46 -7 -51 17 -2 -91 -16 45 34 -73 0
-192 -75 0
-192 51 0
-192 38 0
-192 -6 0
-192 -88 0
-192 70 0
-192 -22 0
-192 57 0
-192 -12 0
-192 -56 0
192 75 -51 -38 6 88 -70 22 -57 12 56 0
-193 12 0
-193 -51 0
-193 -26 0
-193 -9 0
-193 -54 0
-193 59 0
-193 -24 0
-193 -60 0
-193 73 0
-193 62 0
193 -12 51 26 9 54 -59 24 60 -73 -62 0
-194 86 0
-194 -84 0
-194 22 0
-194 -67 0
-194 94 0
-194 -20 0
-194 76 0
-194 -12 0
-194 62 0
-194 -59 0
194 -86 84 -22 67 -94 20 -76 12 -62 59 0
-195 -84 0
-195 98 0
-195 -16 0
-195 -32 0
-195 -35 0
-195 -17 0
-195 -1 0
-195 -50 0
-195 -99 0
-195 37 0
195 84 -98 16 32 35 17 1 50 99 -37 0
-196 -25 0
-196 88 0
-196 2 0
-196 -45 0
-196 28 0
-196 1 0
-196 -77 0
-196 12 0
-196 -71 0
-196 -22 0
196 25 -88 -2 45 -28 -1 77 -12 71 22 0
-197 85 0
-197 74 0
-197 75 0
-197 83 0
-197 -21 0
-197 -55 0
-197 -97 0
-197 -53 0
-197 -13 0
-197 -11 0
197 -85 -74 -75 -83 21 55 97 53 13 11 0
-198 -27 0
-198 -66 0
-198 -88 0
-198 79 0
-198 -29 0
-198 6 0
-198 19 0
-198 86 0
-198 -41 0
-198 -51 0
198 27 66 88 -79 29 -6 -19 -86 41 51 0
-199 15 0
-199 -12 0
-199 -50 0
-199 -61 0
-199 90 0
-199 54 0
-199 25 0
-199 87 0
-199 18 0
-199 76 0
199 -15 12 50 61 -90 -54 -25 -87 -18 -76 0
-200 -98 0
-200 -48 0
-200 -20 0
-200 -9 0
-200 100 0
-200 -78 0
-200 65 0
-200 13 0
-200 4 0
-200 -82 0
200 98 48 20 9 -100 78 -65 -13 -4 82 0
191 192 193 194 195 196 197 198 199 200 0
